// ALL FEASABLE CUTTING PATTERNS OF THE PROBLEM BELOW:
L = 300;
nitems = 7;
len =  [182 122 81 75 50 40 8];
demands =  [91 14 48 62 74 48 46];

patterns = {
 <0 [1 0 1 0 0 0 4]>,
 <1 [1 0 1 0 0 0 3]>,
 <2 [1 0 1 0 0 0 2]>,
 <3 [1 0 1 0 0 0 1]>,
 <4 [1 0 1 0 0 0 0]>,
 <5 [1 0 0 1 0 1 0]>,
 <6 [1 0 0 1 0 0 5]>,
 <7 [1 0 0 1 0 0 4]>,
 <8 [1 0 0 1 0 0 3]>,
 <9 [1 0 0 1 0 0 2]>,
 <10 [1 0 0 1 0 0 1]>,
 <11 [1 0 0 1 0 0 0]>,
 <12 [1 0 0 0 2 0 2]>,
 <13 [1 0 0 0 2 0 1]>,
 <14 [1 0 0 0 2 0 0]>,
 <15 [1 0 0 0 1 1 3]>,
 <16 [1 0 0 0 1 1 2]>,
 <17 [1 0 0 0 1 1 1]>,
 <18 [1 0 0 0 1 1 0]>,
 <19 [1 0 0 0 1 0 8]>,
 <20 [1 0 0 0 1 0 7]>,
 <21 [1 0 0 0 1 0 6]>,
 <22 [1 0 0 0 1 0 5]>,
 <23 [1 0 0 0 1 0 4]>,
 <24 [1 0 0 0 1 0 3]>,
 <25 [1 0 0 0 1 0 2]>,
 <26 [1 0 0 0 1 0 1]>,
 <27 [1 0 0 0 1 0 0]>,
 <28 [1 0 0 0 0 2 4]>,
 <29 [1 0 0 0 0 2 3]>,
 <30 [1 0 0 0 0 2 2]>,
 <31 [1 0 0 0 0 2 1]>,
 <32 [1 0 0 0 0 2 0]>,
 <33 [1 0 0 0 0 1 9]>,
 <34 [1 0 0 0 0 1 8]>,
 <35 [1 0 0 0 0 1 7]>,
 <36 [1 0 0 0 0 1 6]>,
 <37 [1 0 0 0 0 1 5]>,
 <38 [1 0 0 0 0 1 4]>,
 <39 [1 0 0 0 0 1 3]>,
 <40 [1 0 0 0 0 1 2]>,
 <41 [1 0 0 0 0 1 1]>,
 <42 [1 0 0 0 0 1 0]>,
 <43 [1 0 0 0 0 0 14]>,
 <44 [1 0 0 0 0 0 13]>,
 <45 [1 0 0 0 0 0 12]>,
 <46 [1 0 0 0 0 0 11]>,
 <47 [1 0 0 0 0 0 10]>,
 <48 [1 0 0 0 0 0 9]>,
 <49 [1 0 0 0 0 0 8]>,
 <50 [1 0 0 0 0 0 7]>,
 <51 [1 0 0 0 0 0 6]>,
 <52 [1 0 0 0 0 0 5]>,
 <53 [1 0 0 0 0 0 4]>,
 <54 [1 0 0 0 0 0 3]>,
 <55 [1 0 0 0 0 0 2]>,
 <56 [1 0 0 0 0 0 1]>,
 <57 [1 0 0 0 0 0 0]>,
 <58 [0 2 0 0 1 0 0]>,
 <59 [0 2 0 0 0 1 2]>,
 <60 [0 2 0 0 0 1 1]>,
 <61 [0 2 0 0 0 1 0]>,
 <62 [0 2 0 0 0 0 7]>,
 <63 [0 2 0 0 0 0 6]>,
 <64 [0 2 0 0 0 0 5]>,
 <65 [0 2 0 0 0 0 4]>,
 <66 [0 2 0 0 0 0 3]>,
 <67 [0 2 0 0 0 0 2]>,
 <68 [0 2 0 0 0 0 1]>,
 <69 [0 2 0 0 0 0 0]>,
 <70 [0 1 2 0 0 0 2]>,
 <71 [0 1 2 0 0 0 1]>,
 <72 [0 1 2 0 0 0 0]>,
 <73 [0 1 1 1 0 0 2]>,
 <74 [0 1 1 1 0 0 1]>,
 <75 [0 1 1 1 0 0 0]>,
 <76 [0 1 1 0 1 1 0]>,
 <77 [0 1 1 0 1 0 5]>,
 <78 [0 1 1 0 1 0 4]>,
 <79 [0 1 1 0 1 0 3]>,
 <80 [0 1 1 0 1 0 2]>,
 <81 [0 1 1 0 1 0 1]>,
 <82 [0 1 1 0 1 0 0]>,
 <83 [0 1 1 0 0 2 2]>,
 <84 [0 1 1 0 0 2 1]>,
 <85 [0 1 1 0 0 2 0]>,
 <86 [0 1 1 0 0 1 7]>,
 <87 [0 1 1 0 0 1 6]>,
 <88 [0 1 1 0 0 1 5]>,
 <89 [0 1 1 0 0 1 4]>,
 <90 [0 1 1 0 0 1 3]>,
 <91 [0 1 1 0 0 1 2]>,
 <92 [0 1 1 0 0 1 1]>,
 <93 [0 1 1 0 0 1 0]>,
 <94 [0 1 1 0 0 0 12]>,
 <95 [0 1 1 0 0 0 11]>,
 <96 [0 1 1 0 0 0 10]>,
 <97 [0 1 1 0 0 0 9]>,
 <98 [0 1 1 0 0 0 8]>,
 <99 [0 1 1 0 0 0 7]>,
 <100 [0 1 1 0 0 0 6]>,
 <101 [0 1 1 0 0 0 5]>,
 <102 [0 1 1 0 0 0 4]>,
 <103 [0 1 1 0 0 0 3]>,
 <104 [0 1 1 0 0 0 2]>,
 <105 [0 1 1 0 0 0 1]>,
 <106 [0 1 1 0 0 0 0]>,
 <107 [0 1 0 2 0 0 3]>,
 <108 [0 1 0 2 0 0 2]>,
 <109 [0 1 0 2 0 0 1]>,
 <110 [0 1 0 2 0 0 0]>,
 <111 [0 1 0 1 2 0 0]>,
 <112 [0 1 0 1 1 1 1]>,
 <113 [0 1 0 1 1 1 0]>,
 <114 [0 1 0 1 1 0 6]>,
 <115 [0 1 0 1 1 0 5]>,
 <116 [0 1 0 1 1 0 4]>,
 <117 [0 1 0 1 1 0 3]>,
 <118 [0 1 0 1 1 0 2]>,
 <119 [0 1 0 1 1 0 1]>,
 <120 [0 1 0 1 1 0 0]>,
 <121 [0 1 0 1 0 2 2]>,
 <122 [0 1 0 1 0 2 1]>,
 <123 [0 1 0 1 0 2 0]>,
 <124 [0 1 0 1 0 1 7]>,
 <125 [0 1 0 1 0 1 6]>,
 <126 [0 1 0 1 0 1 5]>,
 <127 [0 1 0 1 0 1 4]>,
 <128 [0 1 0 1 0 1 3]>,
 <129 [0 1 0 1 0 1 2]>,
 <130 [0 1 0 1 0 1 1]>,
 <131 [0 1 0 1 0 1 0]>,
 <132 [0 1 0 1 0 0 12]>,
 <133 [0 1 0 1 0 0 11]>,
 <134 [0 1 0 1 0 0 10]>,
 <135 [0 1 0 1 0 0 9]>,
 <136 [0 1 0 1 0 0 8]>,
 <137 [0 1 0 1 0 0 7]>,
 <138 [0 1 0 1 0 0 6]>,
 <139 [0 1 0 1 0 0 5]>,
 <140 [0 1 0 1 0 0 4]>,
 <141 [0 1 0 1 0 0 3]>,
 <142 [0 1 0 1 0 0 2]>,
 <143 [0 1 0 1 0 0 1]>,
 <144 [0 1 0 1 0 0 0]>,
 <145 [0 1 0 0 3 0 3]>,
 <146 [0 1 0 0 3 0 2]>,
 <147 [0 1 0 0 3 0 1]>,
 <148 [0 1 0 0 3 0 0]>,
 <149 [0 1 0 0 2 1 4]>,
 <150 [0 1 0 0 2 1 3]>,
 <151 [0 1 0 0 2 1 2]>,
 <152 [0 1 0 0 2 1 1]>,
 <153 [0 1 0 0 2 1 0]>,
 <154 [0 1 0 0 2 0 9]>,
 <155 [0 1 0 0 2 0 8]>,
 <156 [0 1 0 0 2 0 7]>,
 <157 [0 1 0 0 2 0 6]>,
 <158 [0 1 0 0 2 0 5]>,
 <159 [0 1 0 0 2 0 4]>,
 <160 [0 1 0 0 2 0 3]>,
 <161 [0 1 0 0 2 0 2]>,
 <162 [0 1 0 0 2 0 1]>,
 <163 [0 1 0 0 2 0 0]>,
 <164 [0 1 0 0 1 3 1]>,
 <165 [0 1 0 0 1 3 0]>,
 <166 [0 1 0 0 1 2 6]>,
 <167 [0 1 0 0 1 2 5]>,
 <168 [0 1 0 0 1 2 4]>,
 <169 [0 1 0 0 1 2 3]>,
 <170 [0 1 0 0 1 2 2]>,
 <171 [0 1 0 0 1 2 1]>,
 <172 [0 1 0 0 1 2 0]>,
 <173 [0 1 0 0 1 1 11]>,
 <174 [0 1 0 0 1 1 10]>,
 <175 [0 1 0 0 1 1 9]>,
 <176 [0 1 0 0 1 1 8]>,
 <177 [0 1 0 0 1 1 7]>,
 <178 [0 1 0 0 1 1 6]>,
 <179 [0 1 0 0 1 1 5]>,
 <180 [0 1 0 0 1 1 4]>,
 <181 [0 1 0 0 1 1 3]>,
 <182 [0 1 0 0 1 1 2]>,
 <183 [0 1 0 0 1 1 1]>,
 <184 [0 1 0 0 1 1 0]>,
 <185 [0 1 0 0 1 0 16]>,
 <186 [0 1 0 0 1 0 15]>,
 <187 [0 1 0 0 1 0 14]>,
 <188 [0 1 0 0 1 0 13]>,
 <189 [0 1 0 0 1 0 12]>,
 <190 [0 1 0 0 1 0 11]>,
 <191 [0 1 0 0 1 0 10]>,
 <192 [0 1 0 0 1 0 9]>,
 <193 [0 1 0 0 1 0 8]>,
 <194 [0 1 0 0 1 0 7]>,
 <195 [0 1 0 0 1 0 6]>,
 <196 [0 1 0 0 1 0 5]>,
 <197 [0 1 0 0 1 0 4]>,
 <198 [0 1 0 0 1 0 3]>,
 <199 [0 1 0 0 1 0 2]>,
 <200 [0 1 0 0 1 0 1]>,
 <201 [0 1 0 0 1 0 0]>,
 <202 [0 1 0 0 0 4 2]>,
 <203 [0 1 0 0 0 4 1]>,
 <204 [0 1 0 0 0 4 0]>,
 <205 [0 1 0 0 0 3 7]>,
 <206 [0 1 0 0 0 3 6]>,
 <207 [0 1 0 0 0 3 5]>,
 <208 [0 1 0 0 0 3 4]>,
 <209 [0 1 0 0 0 3 3]>,
 <210 [0 1 0 0 0 3 2]>,
 <211 [0 1 0 0 0 3 1]>,
 <212 [0 1 0 0 0 3 0]>,
 <213 [0 1 0 0 0 2 12]>,
 <214 [0 1 0 0 0 2 11]>,
 <215 [0 1 0 0 0 2 10]>,
 <216 [0 1 0 0 0 2 9]>,
 <217 [0 1 0 0 0 2 8]>,
 <218 [0 1 0 0 0 2 7]>,
 <219 [0 1 0 0 0 2 6]>,
 <220 [0 1 0 0 0 2 5]>,
 <221 [0 1 0 0 0 2 4]>,
 <222 [0 1 0 0 0 2 3]>,
 <223 [0 1 0 0 0 2 2]>,
 <224 [0 1 0 0 0 2 1]>,
 <225 [0 1 0 0 0 2 0]>,
 <226 [0 1 0 0 0 1 17]>,
 <227 [0 1 0 0 0 1 16]>,
 <228 [0 1 0 0 0 1 15]>,
 <229 [0 1 0 0 0 1 14]>,
 <230 [0 1 0 0 0 1 13]>,
 <231 [0 1 0 0 0 1 12]>,
 <232 [0 1 0 0 0 1 11]>,
 <233 [0 1 0 0 0 1 10]>,
 <234 [0 1 0 0 0 1 9]>,
 <235 [0 1 0 0 0 1 8]>,
 <236 [0 1 0 0 0 1 7]>,
 <237 [0 1 0 0 0 1 6]>,
 <238 [0 1 0 0 0 1 5]>,
 <239 [0 1 0 0 0 1 4]>,
 <240 [0 1 0 0 0 1 3]>,
 <241 [0 1 0 0 0 1 2]>,
 <242 [0 1 0 0 0 1 1]>,
 <243 [0 1 0 0 0 1 0]>,
 <244 [0 1 0 0 0 0 22]>,
 <245 [0 1 0 0 0 0 21]>,
 <246 [0 1 0 0 0 0 20]>,
 <247 [0 1 0 0 0 0 19]>,
 <248 [0 1 0 0 0 0 18]>,
 <249 [0 1 0 0 0 0 17]>,
 <250 [0 1 0 0 0 0 16]>,
 <251 [0 1 0 0 0 0 15]>,
 <252 [0 1 0 0 0 0 14]>,
 <253 [0 1 0 0 0 0 13]>,
 <254 [0 1 0 0 0 0 12]>,
 <255 [0 1 0 0 0 0 11]>,
 <256 [0 1 0 0 0 0 10]>,
 <257 [0 1 0 0 0 0 9]>,
 <258 [0 1 0 0 0 0 8]>,
 <259 [0 1 0 0 0 0 7]>,
 <260 [0 1 0 0 0 0 6]>,
 <261 [0 1 0 0 0 0 5]>,
 <262 [0 1 0 0 0 0 4]>,
 <263 [0 1 0 0 0 0 3]>,
 <264 [0 1 0 0 0 0 2]>,
 <265 [0 1 0 0 0 0 1]>,
 <266 [0 1 0 0 0 0 0]>,
 <267 [0 0 3 0 1 0 0]>,
 <268 [0 0 3 0 0 1 2]>,
 <269 [0 0 3 0 0 1 1]>,
 <270 [0 0 3 0 0 1 0]>,
 <271 [0 0 3 0 0 0 7]>,
 <272 [0 0 3 0 0 0 6]>,
 <273 [0 0 3 0 0 0 5]>,
 <274 [0 0 3 0 0 0 4]>,
 <275 [0 0 3 0 0 0 3]>,
 <276 [0 0 3 0 0 0 2]>,
 <277 [0 0 3 0 0 0 1]>,
 <278 [0 0 3 0 0 0 0]>,
 <279 [0 0 2 1 1 0 1]>,
 <280 [0 0 2 1 1 0 0]>,
 <281 [0 0 2 1 0 1 2]>,
 <282 [0 0 2 1 0 1 1]>,
 <283 [0 0 2 1 0 1 0]>,
 <284 [0 0 2 1 0 0 7]>,
 <285 [0 0 2 1 0 0 6]>,
 <286 [0 0 2 1 0 0 5]>,
 <287 [0 0 2 1 0 0 4]>,
 <288 [0 0 2 1 0 0 3]>,
 <289 [0 0 2 1 0 0 2]>,
 <290 [0 0 2 1 0 0 1]>,
 <291 [0 0 2 1 0 0 0]>,
 <292 [0 0 2 0 2 0 4]>,
 <293 [0 0 2 0 2 0 3]>,
 <294 [0 0 2 0 2 0 2]>,
 <295 [0 0 2 0 2 0 1]>,
 <296 [0 0 2 0 2 0 0]>,
 <297 [0 0 2 0 1 2 1]>,
 <298 [0 0 2 0 1 2 0]>,
 <299 [0 0 2 0 1 1 6]>,
 <300 [0 0 2 0 1 1 5]>,
 <301 [0 0 2 0 1 1 4]>,
 <302 [0 0 2 0 1 1 3]>,
 <303 [0 0 2 0 1 1 2]>,
 <304 [0 0 2 0 1 1 1]>,
 <305 [0 0 2 0 1 1 0]>,
 <306 [0 0 2 0 1 0 11]>,
 <307 [0 0 2 0 1 0 10]>,
 <308 [0 0 2 0 1 0 9]>,
 <309 [0 0 2 0 1 0 8]>,
 <310 [0 0 2 0 1 0 7]>,
 <311 [0 0 2 0 1 0 6]>,
 <312 [0 0 2 0 1 0 5]>,
 <313 [0 0 2 0 1 0 4]>,
 <314 [0 0 2 0 1 0 3]>,
 <315 [0 0 2 0 1 0 2]>,
 <316 [0 0 2 0 1 0 1]>,
 <317 [0 0 2 0 1 0 0]>,
 <318 [0 0 2 0 0 3 2]>,
 <319 [0 0 2 0 0 3 1]>,
 <320 [0 0 2 0 0 3 0]>,
 <321 [0 0 2 0 0 2 7]>,
 <322 [0 0 2 0 0 2 6]>,
 <323 [0 0 2 0 0 2 5]>,
 <324 [0 0 2 0 0 2 4]>,
 <325 [0 0 2 0 0 2 3]>,
 <326 [0 0 2 0 0 2 2]>,
 <327 [0 0 2 0 0 2 1]>,
 <328 [0 0 2 0 0 2 0]>,
 <329 [0 0 2 0 0 1 12]>,
 <330 [0 0 2 0 0 1 11]>,
 <331 [0 0 2 0 0 1 10]>,
 <332 [0 0 2 0 0 1 9]>,
 <333 [0 0 2 0 0 1 8]>,
 <334 [0 0 2 0 0 1 7]>,
 <335 [0 0 2 0 0 1 6]>,
 <336 [0 0 2 0 0 1 5]>,
 <337 [0 0 2 0 0 1 4]>,
 <338 [0 0 2 0 0 1 3]>,
 <339 [0 0 2 0 0 1 2]>,
 <340 [0 0 2 0 0 1 1]>,
 <341 [0 0 2 0 0 1 0]>,
 <342 [0 0 2 0 0 0 17]>,
 <343 [0 0 2 0 0 0 16]>,
 <344 [0 0 2 0 0 0 15]>,
 <345 [0 0 2 0 0 0 14]>,
 <346 [0 0 2 0 0 0 13]>,
 <347 [0 0 2 0 0 0 12]>,
 <348 [0 0 2 0 0 0 11]>,
 <349 [0 0 2 0 0 0 10]>,
 <350 [0 0 2 0 0 0 9]>,
 <351 [0 0 2 0 0 0 8]>,
 <352 [0 0 2 0 0 0 7]>,
 <353 [0 0 2 0 0 0 6]>,
 <354 [0 0 2 0 0 0 5]>,
 <355 [0 0 2 0 0 0 4]>,
 <356 [0 0 2 0 0 0 3]>,
 <357 [0 0 2 0 0 0 2]>,
 <358 [0 0 2 0 0 0 1]>,
 <359 [0 0 2 0 0 0 0]>,
 <360 [0 0 1 2 1 0 2]>,
 <361 [0 0 1 2 1 0 1]>,
 <362 [0 0 1 2 1 0 0]>,
 <363 [0 0 1 2 0 1 3]>,
 <364 [0 0 1 2 0 1 2]>,
 <365 [0 0 1 2 0 1 1]>,
 <366 [0 0 1 2 0 1 0]>,
 <367 [0 0 1 2 0 0 8]>,
 <368 [0 0 1 2 0 0 7]>,
 <369 [0 0 1 2 0 0 6]>,
 <370 [0 0 1 2 0 0 5]>,
 <371 [0 0 1 2 0 0 4]>,
 <372 [0 0 1 2 0 0 3]>,
 <373 [0 0 1 2 0 0 2]>,
 <374 [0 0 1 2 0 0 1]>,
 <375 [0 0 1 2 0 0 0]>,
 <376 [0 0 1 1 2 1 0]>,
 <377 [0 0 1 1 2 0 5]>,
 <378 [0 0 1 1 2 0 4]>,
 <379 [0 0 1 1 2 0 3]>,
 <380 [0 0 1 1 2 0 2]>,
 <381 [0 0 1 1 2 0 1]>,
 <382 [0 0 1 1 2 0 0]>,
 <383 [0 0 1 1 1 2 1]>,
 <384 [0 0 1 1 1 2 0]>,
 <385 [0 0 1 1 1 1 6]>,
 <386 [0 0 1 1 1 1 5]>,
 <387 [0 0 1 1 1 1 4]>,
 <388 [0 0 1 1 1 1 3]>,
 <389 [0 0 1 1 1 1 2]>,
 <390 [0 0 1 1 1 1 1]>,
 <391 [0 0 1 1 1 1 0]>,
 <392 [0 0 1 1 1 0 11]>,
 <393 [0 0 1 1 1 0 10]>,
 <394 [0 0 1 1 1 0 9]>,
 <395 [0 0 1 1 1 0 8]>,
 <396 [0 0 1 1 1 0 7]>,
 <397 [0 0 1 1 1 0 6]>,
 <398 [0 0 1 1 1 0 5]>,
 <399 [0 0 1 1 1 0 4]>,
 <400 [0 0 1 1 1 0 3]>,
 <401 [0 0 1 1 1 0 2]>,
 <402 [0 0 1 1 1 0 1]>,
 <403 [0 0 1 1 1 0 0]>,
 <404 [0 0 1 1 0 3 3]>,
 <405 [0 0 1 1 0 3 2]>,
 <406 [0 0 1 1 0 3 1]>,
 <407 [0 0 1 1 0 3 0]>,
 <408 [0 0 1 1 0 2 8]>,
 <409 [0 0 1 1 0 2 7]>,
 <410 [0 0 1 1 0 2 6]>,
 <411 [0 0 1 1 0 2 5]>,
 <412 [0 0 1 1 0 2 4]>,
 <413 [0 0 1 1 0 2 3]>,
 <414 [0 0 1 1 0 2 2]>,
 <415 [0 0 1 1 0 2 1]>,
 <416 [0 0 1 1 0 2 0]>,
 <417 [0 0 1 1 0 1 13]>,
 <418 [0 0 1 1 0 1 12]>,
 <419 [0 0 1 1 0 1 11]>,
 <420 [0 0 1 1 0 1 10]>,
 <421 [0 0 1 1 0 1 9]>,
 <422 [0 0 1 1 0 1 8]>,
 <423 [0 0 1 1 0 1 7]>,
 <424 [0 0 1 1 0 1 6]>,
 <425 [0 0 1 1 0 1 5]>,
 <426 [0 0 1 1 0 1 4]>,
 <427 [0 0 1 1 0 1 3]>,
 <428 [0 0 1 1 0 1 2]>,
 <429 [0 0 1 1 0 1 1]>,
 <430 [0 0 1 1 0 1 0]>,
 <431 [0 0 1 1 0 0 18]>,
 <432 [0 0 1 1 0 0 17]>,
 <433 [0 0 1 1 0 0 16]>,
 <434 [0 0 1 1 0 0 15]>,
 <435 [0 0 1 1 0 0 14]>,
 <436 [0 0 1 1 0 0 13]>,
 <437 [0 0 1 1 0 0 12]>,
 <438 [0 0 1 1 0 0 11]>,
 <439 [0 0 1 1 0 0 10]>,
 <440 [0 0 1 1 0 0 9]>,
 <441 [0 0 1 1 0 0 8]>,
 <442 [0 0 1 1 0 0 7]>,
 <443 [0 0 1 1 0 0 6]>,
 <444 [0 0 1 1 0 0 5]>,
 <445 [0 0 1 1 0 0 4]>,
 <446 [0 0 1 1 0 0 3]>,
 <447 [0 0 1 1 0 0 2]>,
 <448 [0 0 1 1 0 0 1]>,
 <449 [0 0 1 1 0 0 0]>,
 <450 [0 0 1 0 4 0 2]>,
 <451 [0 0 1 0 4 0 1]>,
 <452 [0 0 1 0 4 0 0]>,
 <453 [0 0 1 0 3 1 3]>,
 <454 [0 0 1 0 3 1 2]>,
 <455 [0 0 1 0 3 1 1]>,
 <456 [0 0 1 0 3 1 0]>,
 <457 [0 0 1 0 3 0 8]>,
 <458 [0 0 1 0 3 0 7]>,
 <459 [0 0 1 0 3 0 6]>,
 <460 [0 0 1 0 3 0 5]>,
 <461 [0 0 1 0 3 0 4]>,
 <462 [0 0 1 0 3 0 3]>,
 <463 [0 0 1 0 3 0 2]>,
 <464 [0 0 1 0 3 0 1]>,
 <465 [0 0 1 0 3 0 0]>,
 <466 [0 0 1 0 2 2 4]>,
 <467 [0 0 1 0 2 2 3]>,
 <468 [0 0 1 0 2 2 2]>,
 <469 [0 0 1 0 2 2 1]>,
 <470 [0 0 1 0 2 2 0]>,
 <471 [0 0 1 0 2 1 9]>,
 <472 [0 0 1 0 2 1 8]>,
 <473 [0 0 1 0 2 1 7]>,
 <474 [0 0 1 0 2 1 6]>,
 <475 [0 0 1 0 2 1 5]>,
 <476 [0 0 1 0 2 1 4]>,
 <477 [0 0 1 0 2 1 3]>,
 <478 [0 0 1 0 2 1 2]>,
 <479 [0 0 1 0 2 1 1]>,
 <480 [0 0 1 0 2 1 0]>,
 <481 [0 0 1 0 2 0 14]>,
 <482 [0 0 1 0 2 0 13]>,
 <483 [0 0 1 0 2 0 12]>,
 <484 [0 0 1 0 2 0 11]>,
 <485 [0 0 1 0 2 0 10]>,
 <486 [0 0 1 0 2 0 9]>,
 <487 [0 0 1 0 2 0 8]>,
 <488 [0 0 1 0 2 0 7]>,
 <489 [0 0 1 0 2 0 6]>,
 <490 [0 0 1 0 2 0 5]>,
 <491 [0 0 1 0 2 0 4]>,
 <492 [0 0 1 0 2 0 3]>,
 <493 [0 0 1 0 2 0 2]>,
 <494 [0 0 1 0 2 0 1]>,
 <495 [0 0 1 0 2 0 0]>,
 <496 [0 0 1 0 1 4 1]>,
 <497 [0 0 1 0 1 4 0]>,
 <498 [0 0 1 0 1 3 6]>,
 <499 [0 0 1 0 1 3 5]>,
 <500 [0 0 1 0 1 3 4]>,
 <501 [0 0 1 0 1 3 3]>,
 <502 [0 0 1 0 1 3 2]>,
 <503 [0 0 1 0 1 3 1]>,
 <504 [0 0 1 0 1 3 0]>,
 <505 [0 0 1 0 1 2 11]>,
 <506 [0 0 1 0 1 2 10]>,
 <507 [0 0 1 0 1 2 9]>,
 <508 [0 0 1 0 1 2 8]>,
 <509 [0 0 1 0 1 2 7]>,
 <510 [0 0 1 0 1 2 6]>,
 <511 [0 0 1 0 1 2 5]>,
 <512 [0 0 1 0 1 2 4]>,
 <513 [0 0 1 0 1 2 3]>,
 <514 [0 0 1 0 1 2 2]>,
 <515 [0 0 1 0 1 2 1]>,
 <516 [0 0 1 0 1 2 0]>,
 <517 [0 0 1 0 1 1 16]>,
 <518 [0 0 1 0 1 1 15]>,
 <519 [0 0 1 0 1 1 14]>,
 <520 [0 0 1 0 1 1 13]>,
 <521 [0 0 1 0 1 1 12]>,
 <522 [0 0 1 0 1 1 11]>,
 <523 [0 0 1 0 1 1 10]>,
 <524 [0 0 1 0 1 1 9]>,
 <525 [0 0 1 0 1 1 8]>,
 <526 [0 0 1 0 1 1 7]>,
 <527 [0 0 1 0 1 1 6]>,
 <528 [0 0 1 0 1 1 5]>,
 <529 [0 0 1 0 1 1 4]>,
 <530 [0 0 1 0 1 1 3]>,
 <531 [0 0 1 0 1 1 2]>,
 <532 [0 0 1 0 1 1 1]>,
 <533 [0 0 1 0 1 1 0]>,
 <534 [0 0 1 0 1 0 21]>,
 <535 [0 0 1 0 1 0 20]>,
 <536 [0 0 1 0 1 0 19]>,
 <537 [0 0 1 0 1 0 18]>,
 <538 [0 0 1 0 1 0 17]>,
 <539 [0 0 1 0 1 0 16]>,
 <540 [0 0 1 0 1 0 15]>,
 <541 [0 0 1 0 1 0 14]>,
 <542 [0 0 1 0 1 0 13]>,
 <543 [0 0 1 0 1 0 12]>,
 <544 [0 0 1 0 1 0 11]>,
 <545 [0 0 1 0 1 0 10]>,
 <546 [0 0 1 0 1 0 9]>,
 <547 [0 0 1 0 1 0 8]>,
 <548 [0 0 1 0 1 0 7]>,
 <549 [0 0 1 0 1 0 6]>,
 <550 [0 0 1 0 1 0 5]>,
 <551 [0 0 1 0 1 0 4]>,
 <552 [0 0 1 0 1 0 3]>,
 <553 [0 0 1 0 1 0 2]>,
 <554 [0 0 1 0 1 0 1]>,
 <555 [0 0 1 0 1 0 0]>,
 <556 [0 0 1 0 0 5 2]>,
 <557 [0 0 1 0 0 5 1]>,
 <558 [0 0 1 0 0 5 0]>,
 <559 [0 0 1 0 0 4 7]>,
 <560 [0 0 1 0 0 4 6]>,
 <561 [0 0 1 0 0 4 5]>,
 <562 [0 0 1 0 0 4 4]>,
 <563 [0 0 1 0 0 4 3]>,
 <564 [0 0 1 0 0 4 2]>,
 <565 [0 0 1 0 0 4 1]>,
 <566 [0 0 1 0 0 4 0]>,
 <567 [0 0 1 0 0 3 12]>,
 <568 [0 0 1 0 0 3 11]>,
 <569 [0 0 1 0 0 3 10]>,
 <570 [0 0 1 0 0 3 9]>,
 <571 [0 0 1 0 0 3 8]>,
 <572 [0 0 1 0 0 3 7]>,
 <573 [0 0 1 0 0 3 6]>,
 <574 [0 0 1 0 0 3 5]>,
 <575 [0 0 1 0 0 3 4]>,
 <576 [0 0 1 0 0 3 3]>,
 <577 [0 0 1 0 0 3 2]>,
 <578 [0 0 1 0 0 3 1]>,
 <579 [0 0 1 0 0 3 0]>,
 <580 [0 0 1 0 0 2 17]>,
 <581 [0 0 1 0 0 2 16]>,
 <582 [0 0 1 0 0 2 15]>,
 <583 [0 0 1 0 0 2 14]>,
 <584 [0 0 1 0 0 2 13]>,
 <585 [0 0 1 0 0 2 12]>,
 <586 [0 0 1 0 0 2 11]>,
 <587 [0 0 1 0 0 2 10]>,
 <588 [0 0 1 0 0 2 9]>,
 <589 [0 0 1 0 0 2 8]>,
 <590 [0 0 1 0 0 2 7]>,
 <591 [0 0 1 0 0 2 6]>,
 <592 [0 0 1 0 0 2 5]>,
 <593 [0 0 1 0 0 2 4]>,
 <594 [0 0 1 0 0 2 3]>,
 <595 [0 0 1 0 0 2 2]>,
 <596 [0 0 1 0 0 2 1]>,
 <597 [0 0 1 0 0 2 0]>,
 <598 [0 0 1 0 0 1 22]>,
 <599 [0 0 1 0 0 1 21]>,
 <600 [0 0 1 0 0 1 20]>,
 <601 [0 0 1 0 0 1 19]>,
 <602 [0 0 1 0 0 1 18]>,
 <603 [0 0 1 0 0 1 17]>,
 <604 [0 0 1 0 0 1 16]>,
 <605 [0 0 1 0 0 1 15]>,
 <606 [0 0 1 0 0 1 14]>,
 <607 [0 0 1 0 0 1 13]>,
 <608 [0 0 1 0 0 1 12]>,
 <609 [0 0 1 0 0 1 11]>,
 <610 [0 0 1 0 0 1 10]>,
 <611 [0 0 1 0 0 1 9]>,
 <612 [0 0 1 0 0 1 8]>,
 <613 [0 0 1 0 0 1 7]>,
 <614 [0 0 1 0 0 1 6]>,
 <615 [0 0 1 0 0 1 5]>,
 <616 [0 0 1 0 0 1 4]>,
 <617 [0 0 1 0 0 1 3]>,
 <618 [0 0 1 0 0 1 2]>,
 <619 [0 0 1 0 0 1 1]>,
 <620 [0 0 1 0 0 1 0]>,
 <621 [0 0 1 0 0 0 27]>,
 <622 [0 0 1 0 0 0 26]>,
 <623 [0 0 1 0 0 0 25]>,
 <624 [0 0 1 0 0 0 24]>,
 <625 [0 0 1 0 0 0 23]>,
 <626 [0 0 1 0 0 0 22]>,
 <627 [0 0 1 0 0 0 21]>,
 <628 [0 0 1 0 0 0 20]>,
 <629 [0 0 1 0 0 0 19]>,
 <630 [0 0 1 0 0 0 18]>,
 <631 [0 0 1 0 0 0 17]>,
 <632 [0 0 1 0 0 0 16]>,
 <633 [0 0 1 0 0 0 15]>,
 <634 [0 0 1 0 0 0 14]>,
 <635 [0 0 1 0 0 0 13]>,
 <636 [0 0 1 0 0 0 12]>,
 <637 [0 0 1 0 0 0 11]>,
 <638 [0 0 1 0 0 0 10]>,
 <639 [0 0 1 0 0 0 9]>,
 <640 [0 0 1 0 0 0 8]>,
 <641 [0 0 1 0 0 0 7]>,
 <642 [0 0 1 0 0 0 6]>,
 <643 [0 0 1 0 0 0 5]>,
 <644 [0 0 1 0 0 0 4]>,
 <645 [0 0 1 0 0 0 3]>,
 <646 [0 0 1 0 0 0 2]>,
 <647 [0 0 1 0 0 0 1]>,
 <648 [0 0 1 0 0 0 0]>,
 <649 [0 0 0 4 0 0 0]>,
 <650 [0 0 0 3 1 0 3]>,
 <651 [0 0 0 3 1 0 2]>,
 <652 [0 0 0 3 1 0 1]>,
 <653 [0 0 0 3 1 0 0]>,
 <654 [0 0 0 3 0 1 4]>,
 <655 [0 0 0 3 0 1 3]>,
 <656 [0 0 0 3 0 1 2]>,
 <657 [0 0 0 3 0 1 1]>,
 <658 [0 0 0 3 0 1 0]>,
 <659 [0 0 0 3 0 0 9]>,
 <660 [0 0 0 3 0 0 8]>,
 <661 [0 0 0 3 0 0 7]>,
 <662 [0 0 0 3 0 0 6]>,
 <663 [0 0 0 3 0 0 5]>,
 <664 [0 0 0 3 0 0 4]>,
 <665 [0 0 0 3 0 0 3]>,
 <666 [0 0 0 3 0 0 2]>,
 <667 [0 0 0 3 0 0 1]>,
 <668 [0 0 0 3 0 0 0]>,
 <669 [0 0 0 2 3 0 0]>,
 <670 [0 0 0 2 2 1 1]>,
 <671 [0 0 0 2 2 1 0]>,
 <672 [0 0 0 2 2 0 6]>,
 <673 [0 0 0 2 2 0 5]>,
 <674 [0 0 0 2 2 0 4]>,
 <675 [0 0 0 2 2 0 3]>,
 <676 [0 0 0 2 2 0 2]>,
 <677 [0 0 0 2 2 0 1]>,
 <678 [0 0 0 2 2 0 0]>,
 <679 [0 0 0 2 1 2 2]>,
 <680 [0 0 0 2 1 2 1]>,
 <681 [0 0 0 2 1 2 0]>,
 <682 [0 0 0 2 1 1 7]>,
 <683 [0 0 0 2 1 1 6]>,
 <684 [0 0 0 2 1 1 5]>,
 <685 [0 0 0 2 1 1 4]>,
 <686 [0 0 0 2 1 1 3]>,
 <687 [0 0 0 2 1 1 2]>,
 <688 [0 0 0 2 1 1 1]>,
 <689 [0 0 0 2 1 1 0]>,
 <690 [0 0 0 2 1 0 12]>,
 <691 [0 0 0 2 1 0 11]>,
 <692 [0 0 0 2 1 0 10]>,
 <693 [0 0 0 2 1 0 9]>,
 <694 [0 0 0 2 1 0 8]>,
 <695 [0 0 0 2 1 0 7]>,
 <696 [0 0 0 2 1 0 6]>,
 <697 [0 0 0 2 1 0 5]>,
 <698 [0 0 0 2 1 0 4]>,
 <699 [0 0 0 2 1 0 3]>,
 <700 [0 0 0 2 1 0 2]>,
 <701 [0 0 0 2 1 0 1]>,
 <702 [0 0 0 2 1 0 0]>,
 <703 [0 0 0 2 0 3 3]>,
 <704 [0 0 0 2 0 3 2]>,
 <705 [0 0 0 2 0 3 1]>,
 <706 [0 0 0 2 0 3 0]>,
 <707 [0 0 0 2 0 2 8]>,
 <708 [0 0 0 2 0 2 7]>,
 <709 [0 0 0 2 0 2 6]>,
 <710 [0 0 0 2 0 2 5]>,
 <711 [0 0 0 2 0 2 4]>,
 <712 [0 0 0 2 0 2 3]>,
 <713 [0 0 0 2 0 2 2]>,
 <714 [0 0 0 2 0 2 1]>,
 <715 [0 0 0 2 0 2 0]>,
 <716 [0 0 0 2 0 1 13]>,
 <717 [0 0 0 2 0 1 12]>,
 <718 [0 0 0 2 0 1 11]>,
 <719 [0 0 0 2 0 1 10]>,
 <720 [0 0 0 2 0 1 9]>,
 <721 [0 0 0 2 0 1 8]>,
 <722 [0 0 0 2 0 1 7]>,
 <723 [0 0 0 2 0 1 6]>,
 <724 [0 0 0 2 0 1 5]>,
 <725 [0 0 0 2 0 1 4]>,
 <726 [0 0 0 2 0 1 3]>,
 <727 [0 0 0 2 0 1 2]>,
 <728 [0 0 0 2 0 1 1]>,
 <729 [0 0 0 2 0 1 0]>,
 <730 [0 0 0 2 0 0 18]>,
 <731 [0 0 0 2 0 0 17]>,
 <732 [0 0 0 2 0 0 16]>,
 <733 [0 0 0 2 0 0 15]>,
 <734 [0 0 0 2 0 0 14]>,
 <735 [0 0 0 2 0 0 13]>,
 <736 [0 0 0 2 0 0 12]>,
 <737 [0 0 0 2 0 0 11]>,
 <738 [0 0 0 2 0 0 10]>,
 <739 [0 0 0 2 0 0 9]>,
 <740 [0 0 0 2 0 0 8]>,
 <741 [0 0 0 2 0 0 7]>,
 <742 [0 0 0 2 0 0 6]>,
 <743 [0 0 0 2 0 0 5]>,
 <744 [0 0 0 2 0 0 4]>,
 <745 [0 0 0 2 0 0 3]>,
 <746 [0 0 0 2 0 0 2]>,
 <747 [0 0 0 2 0 0 1]>,
 <748 [0 0 0 2 0 0 0]>,
 <749 [0 0 0 1 4 0 3]>,
 <750 [0 0 0 1 4 0 2]>,
 <751 [0 0 0 1 4 0 1]>,
 <752 [0 0 0 1 4 0 0]>,
 <753 [0 0 0 1 3 1 4]>,
 <754 [0 0 0 1 3 1 3]>,
 <755 [0 0 0 1 3 1 2]>,
 <756 [0 0 0 1 3 1 1]>,
 <757 [0 0 0 1 3 1 0]>,
 <758 [0 0 0 1 3 0 9]>,
 <759 [0 0 0 1 3 0 8]>,
 <760 [0 0 0 1 3 0 7]>,
 <761 [0 0 0 1 3 0 6]>,
 <762 [0 0 0 1 3 0 5]>,
 <763 [0 0 0 1 3 0 4]>,
 <764 [0 0 0 1 3 0 3]>,
 <765 [0 0 0 1 3 0 2]>,
 <766 [0 0 0 1 3 0 1]>,
 <767 [0 0 0 1 3 0 0]>,
 <768 [0 0 0 1 2 3 0]>,
 <769 [0 0 0 1 2 2 5]>,
 <770 [0 0 0 1 2 2 4]>,
 <771 [0 0 0 1 2 2 3]>,
 <772 [0 0 0 1 2 2 2]>,
 <773 [0 0 0 1 2 2 1]>,
 <774 [0 0 0 1 2 2 0]>,
 <775 [0 0 0 1 2 1 10]>,
 <776 [0 0 0 1 2 1 9]>,
 <777 [0 0 0 1 2 1 8]>,
 <778 [0 0 0 1 2 1 7]>,
 <779 [0 0 0 1 2 1 6]>,
 <780 [0 0 0 1 2 1 5]>,
 <781 [0 0 0 1 2 1 4]>,
 <782 [0 0 0 1 2 1 3]>,
 <783 [0 0 0 1 2 1 2]>,
 <784 [0 0 0 1 2 1 1]>,
 <785 [0 0 0 1 2 1 0]>,
 <786 [0 0 0 1 2 0 15]>,
 <787 [0 0 0 1 2 0 14]>,
 <788 [0 0 0 1 2 0 13]>,
 <789 [0 0 0 1 2 0 12]>,
 <790 [0 0 0 1 2 0 11]>,
 <791 [0 0 0 1 2 0 10]>,
 <792 [0 0 0 1 2 0 9]>,
 <793 [0 0 0 1 2 0 8]>,
 <794 [0 0 0 1 2 0 7]>,
 <795 [0 0 0 1 2 0 6]>,
 <796 [0 0 0 1 2 0 5]>,
 <797 [0 0 0 1 2 0 4]>,
 <798 [0 0 0 1 2 0 3]>,
 <799 [0 0 0 1 2 0 2]>,
 <800 [0 0 0 1 2 0 1]>,
 <801 [0 0 0 1 2 0 0]>,
 <802 [0 0 0 1 1 4 1]>,
 <803 [0 0 0 1 1 4 0]>,
 <804 [0 0 0 1 1 3 6]>,
 <805 [0 0 0 1 1 3 5]>,
 <806 [0 0 0 1 1 3 4]>,
 <807 [0 0 0 1 1 3 3]>,
 <808 [0 0 0 1 1 3 2]>,
 <809 [0 0 0 1 1 3 1]>,
 <810 [0 0 0 1 1 3 0]>,
 <811 [0 0 0 1 1 2 11]>,
 <812 [0 0 0 1 1 2 10]>,
 <813 [0 0 0 1 1 2 9]>,
 <814 [0 0 0 1 1 2 8]>,
 <815 [0 0 0 1 1 2 7]>,
 <816 [0 0 0 1 1 2 6]>,
 <817 [0 0 0 1 1 2 5]>,
 <818 [0 0 0 1 1 2 4]>,
 <819 [0 0 0 1 1 2 3]>,
 <820 [0 0 0 1 1 2 2]>,
 <821 [0 0 0 1 1 2 1]>,
 <822 [0 0 0 1 1 2 0]>,
 <823 [0 0 0 1 1 1 16]>,
 <824 [0 0 0 1 1 1 15]>,
 <825 [0 0 0 1 1 1 14]>,
 <826 [0 0 0 1 1 1 13]>,
 <827 [0 0 0 1 1 1 12]>,
 <828 [0 0 0 1 1 1 11]>,
 <829 [0 0 0 1 1 1 10]>,
 <830 [0 0 0 1 1 1 9]>,
 <831 [0 0 0 1 1 1 8]>,
 <832 [0 0 0 1 1 1 7]>,
 <833 [0 0 0 1 1 1 6]>,
 <834 [0 0 0 1 1 1 5]>,
 <835 [0 0 0 1 1 1 4]>,
 <836 [0 0 0 1 1 1 3]>,
 <837 [0 0 0 1 1 1 2]>,
 <838 [0 0 0 1 1 1 1]>,
 <839 [0 0 0 1 1 1 0]>,
 <840 [0 0 0 1 1 0 21]>,
 <841 [0 0 0 1 1 0 20]>,
 <842 [0 0 0 1 1 0 19]>,
 <843 [0 0 0 1 1 0 18]>,
 <844 [0 0 0 1 1 0 17]>,
 <845 [0 0 0 1 1 0 16]>,
 <846 [0 0 0 1 1 0 15]>,
 <847 [0 0 0 1 1 0 14]>,
 <848 [0 0 0 1 1 0 13]>,
 <849 [0 0 0 1 1 0 12]>,
 <850 [0 0 0 1 1 0 11]>,
 <851 [0 0 0 1 1 0 10]>,
 <852 [0 0 0 1 1 0 9]>,
 <853 [0 0 0 1 1 0 8]>,
 <854 [0 0 0 1 1 0 7]>,
 <855 [0 0 0 1 1 0 6]>,
 <856 [0 0 0 1 1 0 5]>,
 <857 [0 0 0 1 1 0 4]>,
 <858 [0 0 0 1 1 0 3]>,
 <859 [0 0 0 1 1 0 2]>,
 <860 [0 0 0 1 1 0 1]>,
 <861 [0 0 0 1 1 0 0]>,
 <862 [0 0 0 1 0 5 3]>,
 <863 [0 0 0 1 0 5 2]>,
 <864 [0 0 0 1 0 5 1]>,
 <865 [0 0 0 1 0 5 0]>,
 <866 [0 0 0 1 0 4 8]>,
 <867 [0 0 0 1 0 4 7]>,
 <868 [0 0 0 1 0 4 6]>,
 <869 [0 0 0 1 0 4 5]>,
 <870 [0 0 0 1 0 4 4]>,
 <871 [0 0 0 1 0 4 3]>,
 <872 [0 0 0 1 0 4 2]>,
 <873 [0 0 0 1 0 4 1]>,
 <874 [0 0 0 1 0 4 0]>,
 <875 [0 0 0 1 0 3 13]>,
 <876 [0 0 0 1 0 3 12]>,
 <877 [0 0 0 1 0 3 11]>,
 <878 [0 0 0 1 0 3 10]>,
 <879 [0 0 0 1 0 3 9]>,
 <880 [0 0 0 1 0 3 8]>,
 <881 [0 0 0 1 0 3 7]>,
 <882 [0 0 0 1 0 3 6]>,
 <883 [0 0 0 1 0 3 5]>,
 <884 [0 0 0 1 0 3 4]>,
 <885 [0 0 0 1 0 3 3]>,
 <886 [0 0 0 1 0 3 2]>,
 <887 [0 0 0 1 0 3 1]>,
 <888 [0 0 0 1 0 3 0]>,
 <889 [0 0 0 1 0 2 18]>,
 <890 [0 0 0 1 0 2 17]>,
 <891 [0 0 0 1 0 2 16]>,
 <892 [0 0 0 1 0 2 15]>,
 <893 [0 0 0 1 0 2 14]>,
 <894 [0 0 0 1 0 2 13]>,
 <895 [0 0 0 1 0 2 12]>,
 <896 [0 0 0 1 0 2 11]>,
 <897 [0 0 0 1 0 2 10]>,
 <898 [0 0 0 1 0 2 9]>,
 <899 [0 0 0 1 0 2 8]>,
 <900 [0 0 0 1 0 2 7]>,
 <901 [0 0 0 1 0 2 6]>,
 <902 [0 0 0 1 0 2 5]>,
 <903 [0 0 0 1 0 2 4]>,
 <904 [0 0 0 1 0 2 3]>,
 <905 [0 0 0 1 0 2 2]>,
 <906 [0 0 0 1 0 2 1]>,
 <907 [0 0 0 1 0 2 0]>,
 <908 [0 0 0 1 0 1 23]>,
 <909 [0 0 0 1 0 1 22]>,
 <910 [0 0 0 1 0 1 21]>,
 <911 [0 0 0 1 0 1 20]>,
 <912 [0 0 0 1 0 1 19]>,
 <913 [0 0 0 1 0 1 18]>,
 <914 [0 0 0 1 0 1 17]>,
 <915 [0 0 0 1 0 1 16]>,
 <916 [0 0 0 1 0 1 15]>,
 <917 [0 0 0 1 0 1 14]>,
 <918 [0 0 0 1 0 1 13]>,
 <919 [0 0 0 1 0 1 12]>,
 <920 [0 0 0 1 0 1 11]>,
 <921 [0 0 0 1 0 1 10]>,
 <922 [0 0 0 1 0 1 9]>,
 <923 [0 0 0 1 0 1 8]>,
 <924 [0 0 0 1 0 1 7]>,
 <925 [0 0 0 1 0 1 6]>,
 <926 [0 0 0 1 0 1 5]>,
 <927 [0 0 0 1 0 1 4]>,
 <928 [0 0 0 1 0 1 3]>,
 <929 [0 0 0 1 0 1 2]>,
 <930 [0 0 0 1 0 1 1]>,
 <931 [0 0 0 1 0 1 0]>,
 <932 [0 0 0 1 0 0 28]>,
 <933 [0 0 0 1 0 0 27]>,
 <934 [0 0 0 1 0 0 26]>,
 <935 [0 0 0 1 0 0 25]>,
 <936 [0 0 0 1 0 0 24]>,
 <937 [0 0 0 1 0 0 23]>,
 <938 [0 0 0 1 0 0 22]>,
 <939 [0 0 0 1 0 0 21]>,
 <940 [0 0 0 1 0 0 20]>,
 <941 [0 0 0 1 0 0 19]>,
 <942 [0 0 0 1 0 0 18]>,
 <943 [0 0 0 1 0 0 17]>,
 <944 [0 0 0 1 0 0 16]>,
 <945 [0 0 0 1 0 0 15]>,
 <946 [0 0 0 1 0 0 14]>,
 <947 [0 0 0 1 0 0 13]>,
 <948 [0 0 0 1 0 0 12]>,
 <949 [0 0 0 1 0 0 11]>,
 <950 [0 0 0 1 0 0 10]>,
 <951 [0 0 0 1 0 0 9]>,
 <952 [0 0 0 1 0 0 8]>,
 <953 [0 0 0 1 0 0 7]>,
 <954 [0 0 0 1 0 0 6]>,
 <955 [0 0 0 1 0 0 5]>,
 <956 [0 0 0 1 0 0 4]>,
 <957 [0 0 0 1 0 0 3]>,
 <958 [0 0 0 1 0 0 2]>,
 <959 [0 0 0 1 0 0 1]>,
 <960 [0 0 0 1 0 0 0]>,
 <961 [0 0 0 0 6 0 0]>,
 <962 [0 0 0 0 5 1 1]>,
 <963 [0 0 0 0 5 1 0]>,
 <964 [0 0 0 0 5 0 6]>,
 <965 [0 0 0 0 5 0 5]>,
 <966 [0 0 0 0 5 0 4]>,
 <967 [0 0 0 0 5 0 3]>,
 <968 [0 0 0 0 5 0 2]>,
 <969 [0 0 0 0 5 0 1]>,
 <970 [0 0 0 0 5 0 0]>,
 <971 [0 0 0 0 4 2 2]>,
 <972 [0 0 0 0 4 2 1]>,
 <973 [0 0 0 0 4 2 0]>,
 <974 [0 0 0 0 4 1 7]>,
 <975 [0 0 0 0 4 1 6]>,
 <976 [0 0 0 0 4 1 5]>,
 <977 [0 0 0 0 4 1 4]>,
 <978 [0 0 0 0 4 1 3]>,
 <979 [0 0 0 0 4 1 2]>,
 <980 [0 0 0 0 4 1 1]>,
 <981 [0 0 0 0 4 1 0]>,
 <982 [0 0 0 0 4 0 12]>,
 <983 [0 0 0 0 4 0 11]>,
 <984 [0 0 0 0 4 0 10]>,
 <985 [0 0 0 0 4 0 9]>,
 <986 [0 0 0 0 4 0 8]>,
 <987 [0 0 0 0 4 0 7]>,
 <988 [0 0 0 0 4 0 6]>,
 <989 [0 0 0 0 4 0 5]>,
 <990 [0 0 0 0 4 0 4]>,
 <991 [0 0 0 0 4 0 3]>,
 <992 [0 0 0 0 4 0 2]>,
 <993 [0 0 0 0 4 0 1]>,
 <994 [0 0 0 0 4 0 0]>,
 <995 [0 0 0 0 3 3 3]>,
 <996 [0 0 0 0 3 3 2]>,
 <997 [0 0 0 0 3 3 1]>,
 <998 [0 0 0 0 3 3 0]>,
 <999 [0 0 0 0 3 2 8]>,
 <1000 [0 0 0 0 3 2 7]>,
 <1001 [0 0 0 0 3 2 6]>,
 <1002 [0 0 0 0 3 2 5]>,
 <1003 [0 0 0 0 3 2 4]>,
 <1004 [0 0 0 0 3 2 3]>,
 <1005 [0 0 0 0 3 2 2]>,
 <1006 [0 0 0 0 3 2 1]>,
 <1007 [0 0 0 0 3 2 0]>,
 <1008 [0 0 0 0 3 1 13]>,
 <1009 [0 0 0 0 3 1 12]>,
 <1010 [0 0 0 0 3 1 11]>,
 <1011 [0 0 0 0 3 1 10]>,
 <1012 [0 0 0 0 3 1 9]>,
 <1013 [0 0 0 0 3 1 8]>,
 <1014 [0 0 0 0 3 1 7]>,
 <1015 [0 0 0 0 3 1 6]>,
 <1016 [0 0 0 0 3 1 5]>,
 <1017 [0 0 0 0 3 1 4]>,
 <1018 [0 0 0 0 3 1 3]>,
 <1019 [0 0 0 0 3 1 2]>,
 <1020 [0 0 0 0 3 1 1]>,
 <1021 [0 0 0 0 3 1 0]>,
 <1022 [0 0 0 0 3 0 18]>,
 <1023 [0 0 0 0 3 0 17]>,
 <1024 [0 0 0 0 3 0 16]>,
 <1025 [0 0 0 0 3 0 15]>,
 <1026 [0 0 0 0 3 0 14]>,
 <1027 [0 0 0 0 3 0 13]>,
 <1028 [0 0 0 0 3 0 12]>,
 <1029 [0 0 0 0 3 0 11]>,
 <1030 [0 0 0 0 3 0 10]>,
 <1031 [0 0 0 0 3 0 9]>,
 <1032 [0 0 0 0 3 0 8]>,
 <1033 [0 0 0 0 3 0 7]>,
 <1034 [0 0 0 0 3 0 6]>,
 <1035 [0 0 0 0 3 0 5]>,
 <1036 [0 0 0 0 3 0 4]>,
 <1037 [0 0 0 0 3 0 3]>,
 <1038 [0 0 0 0 3 0 2]>,
 <1039 [0 0 0 0 3 0 1]>,
 <1040 [0 0 0 0 3 0 0]>,
 <1041 [0 0 0 0 2 5 0]>,
 <1042 [0 0 0 0 2 4 5]>,
 <1043 [0 0 0 0 2 4 4]>,
 <1044 [0 0 0 0 2 4 3]>,
 <1045 [0 0 0 0 2 4 2]>,
 <1046 [0 0 0 0 2 4 1]>,
 <1047 [0 0 0 0 2 4 0]>,
 <1048 [0 0 0 0 2 3 10]>,
 <1049 [0 0 0 0 2 3 9]>,
 <1050 [0 0 0 0 2 3 8]>,
 <1051 [0 0 0 0 2 3 7]>,
 <1052 [0 0 0 0 2 3 6]>,
 <1053 [0 0 0 0 2 3 5]>,
 <1054 [0 0 0 0 2 3 4]>,
 <1055 [0 0 0 0 2 3 3]>,
 <1056 [0 0 0 0 2 3 2]>,
 <1057 [0 0 0 0 2 3 1]>,
 <1058 [0 0 0 0 2 3 0]>,
 <1059 [0 0 0 0 2 2 15]>,
 <1060 [0 0 0 0 2 2 14]>,
 <1061 [0 0 0 0 2 2 13]>,
 <1062 [0 0 0 0 2 2 12]>,
 <1063 [0 0 0 0 2 2 11]>,
 <1064 [0 0 0 0 2 2 10]>,
 <1065 [0 0 0 0 2 2 9]>,
 <1066 [0 0 0 0 2 2 8]>,
 <1067 [0 0 0 0 2 2 7]>,
 <1068 [0 0 0 0 2 2 6]>,
 <1069 [0 0 0 0 2 2 5]>,
 <1070 [0 0 0 0 2 2 4]>,
 <1071 [0 0 0 0 2 2 3]>,
 <1072 [0 0 0 0 2 2 2]>,
 <1073 [0 0 0 0 2 2 1]>,
 <1074 [0 0 0 0 2 2 0]>,
 <1075 [0 0 0 0 2 1 20]>,
 <1076 [0 0 0 0 2 1 19]>,
 <1077 [0 0 0 0 2 1 18]>,
 <1078 [0 0 0 0 2 1 17]>,
 <1079 [0 0 0 0 2 1 16]>,
 <1080 [0 0 0 0 2 1 15]>,
 <1081 [0 0 0 0 2 1 14]>,
 <1082 [0 0 0 0 2 1 13]>,
 <1083 [0 0 0 0 2 1 12]>,
 <1084 [0 0 0 0 2 1 11]>,
 <1085 [0 0 0 0 2 1 10]>,
 <1086 [0 0 0 0 2 1 9]>,
 <1087 [0 0 0 0 2 1 8]>,
 <1088 [0 0 0 0 2 1 7]>,
 <1089 [0 0 0 0 2 1 6]>,
 <1090 [0 0 0 0 2 1 5]>,
 <1091 [0 0 0 0 2 1 4]>,
 <1092 [0 0 0 0 2 1 3]>,
 <1093 [0 0 0 0 2 1 2]>,
 <1094 [0 0 0 0 2 1 1]>,
 <1095 [0 0 0 0 2 1 0]>,
 <1096 [0 0 0 0 2 0 25]>,
 <1097 [0 0 0 0 2 0 24]>,
 <1098 [0 0 0 0 2 0 23]>,
 <1099 [0 0 0 0 2 0 22]>,
 <1100 [0 0 0 0 2 0 21]>,
 <1101 [0 0 0 0 2 0 20]>,
 <1102 [0 0 0 0 2 0 19]>,
 <1103 [0 0 0 0 2 0 18]>,
 <1104 [0 0 0 0 2 0 17]>,
 <1105 [0 0 0 0 2 0 16]>,
 <1106 [0 0 0 0 2 0 15]>,
 <1107 [0 0 0 0 2 0 14]>,
 <1108 [0 0 0 0 2 0 13]>,
 <1109 [0 0 0 0 2 0 12]>,
 <1110 [0 0 0 0 2 0 11]>,
 <1111 [0 0 0 0 2 0 10]>,
 <1112 [0 0 0 0 2 0 9]>,
 <1113 [0 0 0 0 2 0 8]>,
 <1114 [0 0 0 0 2 0 7]>,
 <1115 [0 0 0 0 2 0 6]>,
 <1116 [0 0 0 0 2 0 5]>,
 <1117 [0 0 0 0 2 0 4]>,
 <1118 [0 0 0 0 2 0 3]>,
 <1119 [0 0 0 0 2 0 2]>,
 <1120 [0 0 0 0 2 0 1]>,
 <1121 [0 0 0 0 2 0 0]>,
 <1122 [0 0 0 0 1 6 1]>,
 <1123 [0 0 0 0 1 6 0]>,
 <1124 [0 0 0 0 1 5 6]>,
 <1125 [0 0 0 0 1 5 5]>,
 <1126 [0 0 0 0 1 5 4]>,
 <1127 [0 0 0 0 1 5 3]>,
 <1128 [0 0 0 0 1 5 2]>,
 <1129 [0 0 0 0 1 5 1]>,
 <1130 [0 0 0 0 1 5 0]>,
 <1131 [0 0 0 0 1 4 11]>,
 <1132 [0 0 0 0 1 4 10]>,
 <1133 [0 0 0 0 1 4 9]>,
 <1134 [0 0 0 0 1 4 8]>,
 <1135 [0 0 0 0 1 4 7]>,
 <1136 [0 0 0 0 1 4 6]>,
 <1137 [0 0 0 0 1 4 5]>,
 <1138 [0 0 0 0 1 4 4]>,
 <1139 [0 0 0 0 1 4 3]>,
 <1140 [0 0 0 0 1 4 2]>,
 <1141 [0 0 0 0 1 4 1]>,
 <1142 [0 0 0 0 1 4 0]>,
 <1143 [0 0 0 0 1 3 16]>,
 <1144 [0 0 0 0 1 3 15]>,
 <1145 [0 0 0 0 1 3 14]>,
 <1146 [0 0 0 0 1 3 13]>,
 <1147 [0 0 0 0 1 3 12]>,
 <1148 [0 0 0 0 1 3 11]>,
 <1149 [0 0 0 0 1 3 10]>,
 <1150 [0 0 0 0 1 3 9]>,
 <1151 [0 0 0 0 1 3 8]>,
 <1152 [0 0 0 0 1 3 7]>,
 <1153 [0 0 0 0 1 3 6]>,
 <1154 [0 0 0 0 1 3 5]>,
 <1155 [0 0 0 0 1 3 4]>,
 <1156 [0 0 0 0 1 3 3]>,
 <1157 [0 0 0 0 1 3 2]>,
 <1158 [0 0 0 0 1 3 1]>,
 <1159 [0 0 0 0 1 3 0]>,
 <1160 [0 0 0 0 1 2 21]>,
 <1161 [0 0 0 0 1 2 20]>,
 <1162 [0 0 0 0 1 2 19]>,
 <1163 [0 0 0 0 1 2 18]>,
 <1164 [0 0 0 0 1 2 17]>,
 <1165 [0 0 0 0 1 2 16]>,
 <1166 [0 0 0 0 1 2 15]>,
 <1167 [0 0 0 0 1 2 14]>,
 <1168 [0 0 0 0 1 2 13]>,
 <1169 [0 0 0 0 1 2 12]>,
 <1170 [0 0 0 0 1 2 11]>,
 <1171 [0 0 0 0 1 2 10]>,
 <1172 [0 0 0 0 1 2 9]>,
 <1173 [0 0 0 0 1 2 8]>,
 <1174 [0 0 0 0 1 2 7]>,
 <1175 [0 0 0 0 1 2 6]>,
 <1176 [0 0 0 0 1 2 5]>,
 <1177 [0 0 0 0 1 2 4]>,
 <1178 [0 0 0 0 1 2 3]>,
 <1179 [0 0 0 0 1 2 2]>,
 <1180 [0 0 0 0 1 2 1]>,
 <1181 [0 0 0 0 1 2 0]>,
 <1182 [0 0 0 0 1 1 26]>,
 <1183 [0 0 0 0 1 1 25]>,
 <1184 [0 0 0 0 1 1 24]>,
 <1185 [0 0 0 0 1 1 23]>,
 <1186 [0 0 0 0 1 1 22]>,
 <1187 [0 0 0 0 1 1 21]>,
 <1188 [0 0 0 0 1 1 20]>,
 <1189 [0 0 0 0 1 1 19]>,
 <1190 [0 0 0 0 1 1 18]>,
 <1191 [0 0 0 0 1 1 17]>,
 <1192 [0 0 0 0 1 1 16]>,
 <1193 [0 0 0 0 1 1 15]>,
 <1194 [0 0 0 0 1 1 14]>,
 <1195 [0 0 0 0 1 1 13]>,
 <1196 [0 0 0 0 1 1 12]>,
 <1197 [0 0 0 0 1 1 11]>,
 <1198 [0 0 0 0 1 1 10]>,
 <1199 [0 0 0 0 1 1 9]>,
 <1200 [0 0 0 0 1 1 8]>,
 <1201 [0 0 0 0 1 1 7]>,
 <1202 [0 0 0 0 1 1 6]>,
 <1203 [0 0 0 0 1 1 5]>,
 <1204 [0 0 0 0 1 1 4]>,
 <1205 [0 0 0 0 1 1 3]>,
 <1206 [0 0 0 0 1 1 2]>,
 <1207 [0 0 0 0 1 1 1]>,
 <1208 [0 0 0 0 1 1 0]>,
 <1209 [0 0 0 0 1 0 31]>,
 <1210 [0 0 0 0 1 0 30]>,
 <1211 [0 0 0 0 1 0 29]>,
 <1212 [0 0 0 0 1 0 28]>,
 <1213 [0 0 0 0 1 0 27]>,
 <1214 [0 0 0 0 1 0 26]>,
 <1215 [0 0 0 0 1 0 25]>,
 <1216 [0 0 0 0 1 0 24]>,
 <1217 [0 0 0 0 1 0 23]>,
 <1218 [0 0 0 0 1 0 22]>,
 <1219 [0 0 0 0 1 0 21]>,
 <1220 [0 0 0 0 1 0 20]>,
 <1221 [0 0 0 0 1 0 19]>,
 <1222 [0 0 0 0 1 0 18]>,
 <1223 [0 0 0 0 1 0 17]>,
 <1224 [0 0 0 0 1 0 16]>,
 <1225 [0 0 0 0 1 0 15]>,
 <1226 [0 0 0 0 1 0 14]>,
 <1227 [0 0 0 0 1 0 13]>,
 <1228 [0 0 0 0 1 0 12]>,
 <1229 [0 0 0 0 1 0 11]>,
 <1230 [0 0 0 0 1 0 10]>,
 <1231 [0 0 0 0 1 0 9]>,
 <1232 [0 0 0 0 1 0 8]>,
 <1233 [0 0 0 0 1 0 7]>,
 <1234 [0 0 0 0 1 0 6]>,
 <1235 [0 0 0 0 1 0 5]>,
 <1236 [0 0 0 0 1 0 4]>,
 <1237 [0 0 0 0 1 0 3]>,
 <1238 [0 0 0 0 1 0 2]>,
 <1239 [0 0 0 0 1 0 1]>,
 <1240 [0 0 0 0 1 0 0]>,
 <1241 [0 0 0 0 0 7 2]>,
 <1242 [0 0 0 0 0 7 1]>,
 <1243 [0 0 0 0 0 7 0]>,
 <1244 [0 0 0 0 0 6 7]>,
 <1245 [0 0 0 0 0 6 6]>,
 <1246 [0 0 0 0 0 6 5]>,
 <1247 [0 0 0 0 0 6 4]>,
 <1248 [0 0 0 0 0 6 3]>,
 <1249 [0 0 0 0 0 6 2]>,
 <1250 [0 0 0 0 0 6 1]>,
 <1251 [0 0 0 0 0 6 0]>,
 <1252 [0 0 0 0 0 5 12]>,
 <1253 [0 0 0 0 0 5 11]>,
 <1254 [0 0 0 0 0 5 10]>,
 <1255 [0 0 0 0 0 5 9]>,
 <1256 [0 0 0 0 0 5 8]>,
 <1257 [0 0 0 0 0 5 7]>,
 <1258 [0 0 0 0 0 5 6]>,
 <1259 [0 0 0 0 0 5 5]>,
 <1260 [0 0 0 0 0 5 4]>,
 <1261 [0 0 0 0 0 5 3]>,
 <1262 [0 0 0 0 0 5 2]>,
 <1263 [0 0 0 0 0 5 1]>,
 <1264 [0 0 0 0 0 5 0]>,
 <1265 [0 0 0 0 0 4 17]>,
 <1266 [0 0 0 0 0 4 16]>,
 <1267 [0 0 0 0 0 4 15]>,
 <1268 [0 0 0 0 0 4 14]>,
 <1269 [0 0 0 0 0 4 13]>,
 <1270 [0 0 0 0 0 4 12]>,
 <1271 [0 0 0 0 0 4 11]>,
 <1272 [0 0 0 0 0 4 10]>,
 <1273 [0 0 0 0 0 4 9]>,
 <1274 [0 0 0 0 0 4 8]>,
 <1275 [0 0 0 0 0 4 7]>,
 <1276 [0 0 0 0 0 4 6]>,
 <1277 [0 0 0 0 0 4 5]>,
 <1278 [0 0 0 0 0 4 4]>,
 <1279 [0 0 0 0 0 4 3]>,
 <1280 [0 0 0 0 0 4 2]>,
 <1281 [0 0 0 0 0 4 1]>,
 <1282 [0 0 0 0 0 4 0]>,
 <1283 [0 0 0 0 0 3 22]>,
 <1284 [0 0 0 0 0 3 21]>,
 <1285 [0 0 0 0 0 3 20]>,
 <1286 [0 0 0 0 0 3 19]>,
 <1287 [0 0 0 0 0 3 18]>,
 <1288 [0 0 0 0 0 3 17]>,
 <1289 [0 0 0 0 0 3 16]>,
 <1290 [0 0 0 0 0 3 15]>,
 <1291 [0 0 0 0 0 3 14]>,
 <1292 [0 0 0 0 0 3 13]>,
 <1293 [0 0 0 0 0 3 12]>,
 <1294 [0 0 0 0 0 3 11]>,
 <1295 [0 0 0 0 0 3 10]>,
 <1296 [0 0 0 0 0 3 9]>,
 <1297 [0 0 0 0 0 3 8]>,
 <1298 [0 0 0 0 0 3 7]>,
 <1299 [0 0 0 0 0 3 6]>,
 <1300 [0 0 0 0 0 3 5]>,
 <1301 [0 0 0 0 0 3 4]>,
 <1302 [0 0 0 0 0 3 3]>,
 <1303 [0 0 0 0 0 3 2]>,
 <1304 [0 0 0 0 0 3 1]>,
 <1305 [0 0 0 0 0 3 0]>,
 <1306 [0 0 0 0 0 2 27]>,
 <1307 [0 0 0 0 0 2 26]>,
 <1308 [0 0 0 0 0 2 25]>,
 <1309 [0 0 0 0 0 2 24]>,
 <1310 [0 0 0 0 0 2 23]>,
 <1311 [0 0 0 0 0 2 22]>,
 <1312 [0 0 0 0 0 2 21]>,
 <1313 [0 0 0 0 0 2 20]>,
 <1314 [0 0 0 0 0 2 19]>,
 <1315 [0 0 0 0 0 2 18]>,
 <1316 [0 0 0 0 0 2 17]>,
 <1317 [0 0 0 0 0 2 16]>,
 <1318 [0 0 0 0 0 2 15]>,
 <1319 [0 0 0 0 0 2 14]>,
 <1320 [0 0 0 0 0 2 13]>,
 <1321 [0 0 0 0 0 2 12]>,
 <1322 [0 0 0 0 0 2 11]>,
 <1323 [0 0 0 0 0 2 10]>,
 <1324 [0 0 0 0 0 2 9]>,
 <1325 [0 0 0 0 0 2 8]>,
 <1326 [0 0 0 0 0 2 7]>,
 <1327 [0 0 0 0 0 2 6]>,
 <1328 [0 0 0 0 0 2 5]>,
 <1329 [0 0 0 0 0 2 4]>,
 <1330 [0 0 0 0 0 2 3]>,
 <1331 [0 0 0 0 0 2 2]>,
 <1332 [0 0 0 0 0 2 1]>,
 <1333 [0 0 0 0 0 2 0]>,
 <1334 [0 0 0 0 0 1 32]>,
 <1335 [0 0 0 0 0 1 31]>,
 <1336 [0 0 0 0 0 1 30]>,
 <1337 [0 0 0 0 0 1 29]>,
 <1338 [0 0 0 0 0 1 28]>,
 <1339 [0 0 0 0 0 1 27]>,
 <1340 [0 0 0 0 0 1 26]>,
 <1341 [0 0 0 0 0 1 25]>,
 <1342 [0 0 0 0 0 1 24]>,
 <1343 [0 0 0 0 0 1 23]>,
 <1344 [0 0 0 0 0 1 22]>,
 <1345 [0 0 0 0 0 1 21]>,
 <1346 [0 0 0 0 0 1 20]>,
 <1347 [0 0 0 0 0 1 19]>,
 <1348 [0 0 0 0 0 1 18]>,
 <1349 [0 0 0 0 0 1 17]>,
 <1350 [0 0 0 0 0 1 16]>,
 <1351 [0 0 0 0 0 1 15]>,
 <1352 [0 0 0 0 0 1 14]>,
 <1353 [0 0 0 0 0 1 13]>,
 <1354 [0 0 0 0 0 1 12]>,
 <1355 [0 0 0 0 0 1 11]>,
 <1356 [0 0 0 0 0 1 10]>,
 <1357 [0 0 0 0 0 1 9]>,
 <1358 [0 0 0 0 0 1 8]>,
 <1359 [0 0 0 0 0 1 7]>,
 <1360 [0 0 0 0 0 1 6]>,
 <1361 [0 0 0 0 0 1 5]>,
 <1362 [0 0 0 0 0 1 4]>,
 <1363 [0 0 0 0 0 1 3]>,
 <1364 [0 0 0 0 0 1 2]>,
 <1365 [0 0 0 0 0 1 1]>,
 <1366 [0 0 0 0 0 1 0]>,
 <1367 [0 0 0 0 0 0 37]>,
 <1368 [0 0 0 0 0 0 36]>,
 <1369 [0 0 0 0 0 0 35]>,
 <1370 [0 0 0 0 0 0 34]>,
 <1371 [0 0 0 0 0 0 33]>,
 <1372 [0 0 0 0 0 0 32]>,
 <1373 [0 0 0 0 0 0 31]>,
 <1374 [0 0 0 0 0 0 30]>,
 <1375 [0 0 0 0 0 0 29]>,
 <1376 [0 0 0 0 0 0 28]>,
 <1377 [0 0 0 0 0 0 27]>,
 <1378 [0 0 0 0 0 0 26]>,
 <1379 [0 0 0 0 0 0 25]>,
 <1380 [0 0 0 0 0 0 24]>,
 <1381 [0 0 0 0 0 0 23]>,
 <1382 [0 0 0 0 0 0 22]>,
 <1383 [0 0 0 0 0 0 21]>,
 <1384 [0 0 0 0 0 0 20]>,
 <1385 [0 0 0 0 0 0 19]>,
 <1386 [0 0 0 0 0 0 18]>,
 <1387 [0 0 0 0 0 0 17]>,
 <1388 [0 0 0 0 0 0 16]>,
 <1389 [0 0 0 0 0 0 15]>,
 <1390 [0 0 0 0 0 0 14]>,
 <1391 [0 0 0 0 0 0 13]>,
 <1392 [0 0 0 0 0 0 12]>,
 <1393 [0 0 0 0 0 0 11]>,
 <1394 [0 0 0 0 0 0 10]>,
 <1395 [0 0 0 0 0 0 9]>,
 <1396 [0 0 0 0 0 0 8]>,
 <1397 [0 0 0 0 0 0 7]>,
 <1398 [0 0 0 0 0 0 6]>,
 <1399 [0 0 0 0 0 0 5]>,
 <1400 [0 0 0 0 0 0 4]>,
 <1401 [0 0 0 0 0 0 3]>,
 <1402 [0 0 0 0 0 0 2]>,
 <1403 [0 0 0 0 0 0 1]>,
};
